(set-logic HORN)

(declare-fun |main@.preheader32| ( Int Int Int Bool Int Int Int Int Int Int Int Int Int Int Int Int Int Int ) Bool)
(declare-fun |main@_22| ( Int Int Int Int Int Int Int Int Int Int Int Int Int Int Int Int Int ) Bool)
(declare-fun |main@.preheader29| ( Int Int Int Bool Int Int Int Int Int Int Int Int Int Int Int Int Int ) Bool)
(declare-fun |main@.lr.ph83| ( Int Int Int Int Bool Int Int Int Int Int Int Int Int Int Int Int Int Int Int ) Bool)
(declare-fun |main@.preheader25.lr.ph| ( Int Int Int Bool Int Int Int Int Int Int Int Int Int Int Int Int Int Int ) Bool)
(declare-fun |main@.lr.ph39.split| ( Int Int Int Bool Int Int Int Int Int Int Bool Int Int Bool Int Int Bool Int Int Int Int Int Int ) Bool)
(declare-fun |main@verifier.error.split| ( ) Bool)
(declare-fun |main@._crit_edge| ( Int Int Int Bool Int Int Int Int Int Int Int Int Int Int Int Int Int Int ) Bool)
(declare-fun |main@.lr.ph47.split| ( Int Int Int Bool Int Int Int Int Int Int Int Int Int Int Int Int Int Int ) Bool)
(declare-fun |main@empty.loop.body| ( Int Int Int Int Int Int Int Int Int Int Int Int Int Int Int Int Bool ) Bool)
(declare-fun |main@verifier.error| ( ) Bool)
(declare-fun |main@entry| ( Int Int ) Bool)
(declare-fun |main@.lr.ph89.preheader| ( Int Int Int Bool Int Int Int Int Int Int Bool Int Int Int Bool Bool Int Int Int Int Int ) Bool)
(declare-fun |main@.preheader25.lr.ph.split.us| ( Int Int Int Bool Int Int Int Int Int Int Int Int Int Bool Bool Int Int Int Int Int ) Bool)
(declare-fun |main@empty.loop| ( Int Int Int Int Int Int Int Int Int Int Int Int Int Int Int Int Bool ) Bool)
(declare-fun |main@.lr.ph.split.us| ( Int Int Int Int Bool Int Int Int Int Int Int Int Int Int Int Int Int Int Int ) Bool)
(declare-fun |main@.preheader25.preheader| ( Int Int Int Bool Int Int Int Int Int Int Int Int Int Bool Bool Int Int Int Int Int ) Bool)
(declare-fun |main@.lr.ph42.split.preheader| ( Int Int Int Bool Int Int Int Int Int Int Int Bool Int Int Bool Int Int Int Int Int Int ) Bool)
(declare-fun |main@.loopexit| ( Int Int Int Int Int Int Int Int Int Int Int Int Int Int Int Int ) Bool)
(declare-fun |main@.preheader27| ( Int Int Int Bool Int Int Int Int Int Int Int Int Int Int Int Int Int ) Bool)
(declare-fun |main@.lr.ph94| ( Int Int Int Bool Int Int Int Int Int Int Int Int Int Int Int Int Int Int ) Bool)
(declare-fun |main@.lr.ph49.split.preheader| ( Int Int Int Bool Int Int Int Int Int Int Int Int Int Int Int Int Int ) Bool)
(declare-fun |main@.lr.ph39.split.preheader| ( Int Int Int Bool Int Int Int Int Int Int Int Bool Int Int Bool Int Int Int Int Int Int ) Bool)
(declare-fun |main@.lr.ph47.split.preheader| ( Int Int Int Bool Int Int Int Int Int Int Int Int Int Int Int Int Int ) Bool)
(declare-fun |main@.lr.ph89| ( Int Int Int Bool Int Int Int Int Int Bool Int Int Bool Int Int Bool Int Int Int Int Int Int ) Bool)
(declare-fun |main@.lr.ph42.us| ( Int Int Int Bool Int Int Int Int Int Int Int Int Bool Int Int Int Int Int Int ) Bool)
(declare-fun |main@._crit_edge40| ( Int Int Int Bool Int Int Int Int Int Int Int Bool Int Int Bool Int Int Int Int Int Int ) Bool)
(declare-fun |main@.preheader34| ( Int Int Int Bool Int Int Int Int Int Int Int Int Int Int Int Int Int ) Bool)
(declare-fun |main@_51| ( Int Int Int Bool Int Int Int Int Int Int Bool Int Int Bool Int Int Bool Int Int Int Int Int Int ) Bool)
(declare-fun |main@._crit_edge43.us| ( Int Int Int Bool Int Int Int Int Int Int Int Int Bool Int Int Int Int Int Int ) Bool)
(declare-fun |main@.lr.ph49.split| ( Int Int Int Bool Int Int Int Int Int Int Int Int Int Int Int Int Int Int ) Bool)
(declare-fun |main@.lr.ph97| ( Int Int Int Bool Int Int Int Int Int Int Int Int Int Int Int Int Int Int ) Bool)
(declare-fun |main@.lr.ph| ( Int Int Int Bool Int Int Int Int Int Int Int Int Int Int Int Int Int Int ) Bool)

(assert
  (forall ( (A Int) (B Int) ) 
    (=>
      (and
        true
      )
      (main@entry A B)
    )
  )
)
(assert
  (forall ( (A Bool) (B Bool) (C Bool) (D Bool) (E Bool) (F Bool) (G Bool) (H Bool) (I Bool) (J Bool) (K Bool) (L Bool) (M Int) (N Int) (O Bool) (P Int) (Q Bool) (R Bool) (S Int) (T Int) (U Int) (V Int) (W Int) (X Int) (Y Int) (Z Int) (A1 Int) (B1 Int) (C1 Int) (D1 Int) (E1 Int) (F1 Int) (G1 Int) (H1 Int) (I1 Bool) ) 
    (=>
      (and
        (main@entry T F1)
        (and (= B (= D1 0))
     (= C (= E1 1))
     (= D (= Z (- 1)))
     (= E (= C1 (- 1)))
     (= F (= Y (- 1)))
     (= G (= A1 (- 1)))
     (= H (= W (- 1)))
     (= I (= G1 (- 1)))
     (= J (= B1 0))
     (= K (= X 0))
     (= L (= U 1))
     (= O (= T 0))
     (= Q (not (<= P V)))
     (= R (not (<= V T)))
     (= I1 (not (<= H1 0)))
     (= M F1)
     (= N F1)
     (= P (ite O 1 0))
     (= H1 (ite R T V))
     (= A true)
     (= B true)
     (= C true)
     (= D true)
     (= E true)
     (= F true)
     (= G true)
     (= H true)
     (= I true)
     (= J true)
     (= K true)
     (= L true)
     (not Q)
     (= I1 true)
     (= A (= S (- 1))))
      )
      (main@empty.loop S T U V W X Y Z A1 B1 C1 D1 E1 F1 G1 H1 I1)
    )
  )
)
(assert
  (forall ( (A Int) (B Int) (C Int) (D Int) (E Int) (F Int) (G Int) (H Int) (I Int) (J Int) (K Int) (L Int) (M Int) (N Int) (O Int) (P Bool) (Q Int) (R Int) (S Bool) ) 
    (=>
      (and
        (main@_22 A O Q R B C D E F G H I J K L M N)
        (and (= P (not (<= O 1))) (= S true) (= P true) (= S (not (<= Q R))))
      )
      main@verifier.error
    )
  )
)
(assert
  (forall ( (A Int) (B Bool) (C Int) (D Bool) (E Int) (F Int) (G Int) (H Bool) (I Int) (J Int) (K Int) (L Int) (M Int) (N Int) (O Int) (P Int) (Q Int) (R Int) (S Int) (T Int) (U Int) ) 
    (=>
      (and
        (main@_22 E A C G I J K L M N O P Q R S T U)
        (and (= B (not (<= C G)))
     (= H D)
     (= F C)
     (= D true)
     (not B)
     (= D (not (<= A 1))))
      )
      (main@.preheader34 E F G H I J K L M N O P Q R S T U)
    )
  )
)
(assert
  (forall ( (A Bool) (B Int) (C Int) (D Int) (E Bool) (F Int) (G Int) (H Int) (I Int) (J Int) (K Int) (L Int) (M Int) (N Int) (O Int) (P Int) (Q Int) (R Int) (S Int) ) 
    (=>
      (and
        (main@.preheader34 B C D E F G H I J K L M O P Q R S)
        (and (= N (+ 1 C)) (= A true) (= A (not (<= D C))))
      )
      (main@.lr.ph B C D E F G H I J K L M N O P Q R S)
    )
  )
)
(assert
  (forall ( (A Bool) (B Int) (C Int) (D Int) (E Bool) (F Int) (G Int) (H Int) (I Int) (J Int) (K Int) (L Int) (M Int) (N Int) (O Int) (P Int) (Q Int) (R Int) (S Int) ) 
    (=>
      (and
        (main@.preheader34 B C D E F G H I J K L M O P Q R S)
        (and (= N (+ 1 C)) (not A) (= A (not (<= D C))))
      )
      (main@._crit_edge B C D E F G H I J K L M N O P Q R S)
    )
  )
)
(assert
  (forall ( (A Bool) (B Bool) (C Bool) (D Bool) (E Int) (F Int) (G Int) (H Int) (I Bool) (J Int) (K Int) (L Int) (M Int) (N Int) (O Int) (P Int) (Q Int) (R Int) (S Int) (T Int) (U Int) (V Int) (W Int) ) 
    (=>
      (and
        (main@.lr.ph F G H I J K L M N O P Q R S T U V W)
        (and (= B (and I A))
     (= C (not (<= G W)))
     (= D (and C B))
     (= E R)
     (= D true)
     (= A (<= G K)))
      )
      (main@.lr.ph83 E F G H I J K L M N O P Q R S T U V W)
    )
  )
)
(assert
  (forall ( (A Int) (B Int) (C Int) (D Int) (E Int) (F Int) (G Int) (H Int) (I Int) (J Int) (K Int) (L Int) (M Int) (N Int) (O Int) (P Bool) (Q Bool) (R Int) (S Int) (T Bool) (U Bool) (V Bool) ) 
    (=>
      (and
        (main@.lr.ph A R B Q C O D E F G H I J K L M N S)
        (and (= T (and Q P))
     (= U (not (<= R S)))
     (= V (and U T))
     (not V)
     (= P (<= R O)))
      )
      main@verifier.error
    )
  )
)
(assert
  (forall ( (A Int) (B Bool) (C Int) (D Int) (E Int) (F Int) (G Int) (H Bool) (I Int) (J Int) (K Int) (L Int) (M Int) (N Int) (O Int) (P Int) (Q Int) (R Int) (S Int) (T Int) (U Int) (V Int) ) 
    (=>
      (and
        (main@.lr.ph.split.us A E F G H I J K L M N O P Q R S T U V)
        (and (= C (+ 1 A)) (= D C) (= B true) (= B (not (<= A E))))
      )
      (main@.lr.ph83 D E F G H I J K L M N O P Q R S T U V)
    )
  )
)
(assert
  (forall ( (A Int) (B Int) (C Bool) (D Int) (E Int) (F Int) (G Int) (H Int) (I Int) (J Int) (K Int) (L Int) (M Int) (N Int) (O Int) (P Int) (Q Int) (R Int) (S Int) (T Int) (U Bool) ) 
    (=>
      (and
        (main@.lr.ph.split.us S T A B C D E F G H I J K L M N O P Q)
        (and (= R (+ 1 S)) (not U) (= U (not (<= S T))))
      )
      main@verifier.error
    )
  )
)
(assert
  (forall ( (A Bool) (B Int) (C Int) (D Int) (E Int) (F Bool) (G Int) (H Int) (I Int) (J Int) (K Int) (L Int) (M Int) (N Int) (O Int) (P Int) (Q Int) (R Int) (S Int) (T Int) ) 
    (=>
      (and
        (main@.lr.ph83 B C D E F G H I J K L M N O P Q R S T)
        (and (= A true) (= A (not (<= E B))))
      )
      (main@.lr.ph.split.us B C D E F G H I J K L M N O P Q R S T)
    )
  )
)
(assert
  (forall ( (A Int) (B Bool) (C Int) (D Int) (E Int) (F Bool) (G Int) (H Int) (I Int) (J Int) (K Int) (L Int) (M Int) (N Int) (O Int) (P Int) (Q Int) (R Int) (S Int) (T Int) ) 
    (=>
      (and
        (main@.lr.ph83 A C D E F G H I J K L M N O P Q R S T)
        (and (not B) (= B (not (<= E A))))
      )
      (main@._crit_edge C D E F G H I J K L M N O P Q R S T)
    )
  )
)
(assert
  (forall ( (A Int) (B Int) (C Int) (D Bool) (E Int) (F Int) (G Int) (H Bool) (I Int) (J Int) (K Int) (L Int) (M Int) (N Int) (O Int) (P Int) (Q Int) (R Int) (S Int) (T Int) (U Int) ) 
    (=>
      (and
        (main@._crit_edge E F G H I J K L M N O P A Q R S T U)
        (and (= B T) (= D true) (= D (= C 0)))
      )
      (main@.preheader27 E F G H I J K L M N O P Q R S T U)
    )
  )
)
(assert
  (forall ( (A Int) (B Int) (C Bool) (D Int) (E Int) (F Int) (G Bool) (H Int) (I Int) (J Int) (K Int) (L Int) (M Int) (N Int) (O Int) (P Int) (Q Int) (R Int) (S Int) (T Int) (U Int) ) 
    (=>
      (and
        (main@._crit_edge D E F G H I J K L M N O P Q R S T U)
        (and (= A T) (not C) (= C (= B 0)))
      )
      (main@.preheader32 D E F G H I J K L M N O P Q R S T U)
    )
  )
)
(assert
  (forall ( (A Bool) (B Int) (C Int) (D Int) (E Bool) (F Int) (G Int) (H Int) (I Int) (J Int) (K Int) (L Int) (M Int) (N Int) (O Int) (P Int) (Q Int) (R Int) (S Int) ) 
    (=>
      (and
        (main@.preheader32 B C D E F G H I J K L M N O P Q R S)
        (and (= A true) (= A (not (<= D C))))
      )
      (main@.preheader25.lr.ph B C D E F G H I J K L M N O P Q R S)
    )
  )
)
(assert
  (forall ( (A Int) (B Bool) (C Int) (D Int) (E Int) (F Bool) (G Int) (H Int) (I Int) (J Int) (K Int) (L Int) (M Int) (N Int) (O Int) (P Int) (Q Int) (R Int) (S Int) ) 
    (=>
      (and
        (main@.preheader32 C D E F G H I J K L M N A O P Q R S)
        (and (not B) (= B (not (<= E D))))
      )
      (main@.preheader29 C D E F G H I J K L M N O P Q R S)
    )
  )
)
(assert
  (forall ( (A Bool) (B Bool) (C Bool) (D Int) (E Int) (F Int) (G Bool) (H Int) (I Int) (J Int) (K Int) (L Int) (M Int) (N Int) (O Int) (P Int) (Q Bool) (R Bool) (S Int) (T Int) (U Int) (V Int) (W Int) ) 
    (=>
      (and
        (main@.preheader25.lr.ph D E F G H I J K L M N O P S T U V W)
        (and (= R (not G))
     (= A (not (<= U E)))
     (= B (not (<= E I)))
     (= C (not (<= I E)))
     (= C true)
     (= Q (or B A)))
      )
      (main@.preheader25.preheader D E F G H I J K L M N O P Q R S T U V W)
    )
  )
)
(assert
  (forall ( (A Bool) (B Bool) (C Bool) (D Int) (E Int) (F Int) (G Bool) (H Int) (I Int) (J Int) (K Int) (L Int) (M Int) (N Int) (O Int) (P Int) (Q Bool) (R Bool) (S Int) (T Int) (U Int) (V Int) (W Int) ) 
    (=>
      (and
        (main@.preheader25.lr.ph D E F G H I J K L M N O P S T U V W)
        (and (= R (not G))
     (= A (not (<= U E)))
     (= B (not (<= E I)))
     (= C (not (<= I E)))
     (not C)
     (= Q (or B A)))
      )
      (main@.preheader25.lr.ph.split.us D E F G H I J K L M N O P Q R S T U V W)
    )
  )
)
(assert
  (forall ( (A Bool) (B Int) (C Int) (D Int) (E Bool) (F Int) (G Int) (H Int) (I Int) (J Int) (K Int) (L Bool) (M Int) (N Int) (O Int) (P Bool) (Q Bool) (R Int) (S Int) (T Int) (U Int) (V Int) ) 
    (=>
      (and
        (main@.preheader25.preheader B C D E F G H I J K M N O P Q R S T U V)
        (and (= A (not (<= C R))) (= L true) (= L (and E A)))
      )
      (main@.lr.ph89.preheader B C D E F G H I J K L M N O P Q R S T U V)
    )
  )
)
(assert
  (forall ( (A Int) (B Int) (C Int) (D Int) (E Int) (F Int) (G Int) (H Int) (I Int) (J Int) (K Int) (L Bool) (M Bool) (N Int) (O Int) (P Int) (Q Int) (R Int) (S Int) (T Bool) (U Bool) (V Bool) ) 
    (=>
      (and
        (main@.preheader25.preheader A R B T C D E F G H I J K L M S N O P Q)
        (and (= V (and U T)) (not V) (= U (not (<= R S))))
      )
      main@verifier.error
    )
  )
)
(assert
  (forall ( (A Bool) (B Bool) (C Int) (D Int) (E Int) (F Bool) (G Int) (H Int) (I Int) (J Int) (K Int) (L Bool) (M Int) (N Int) (O Bool) (P Int) (Q Int) (R Bool) (S Int) (T Int) (U Int) (V Int) (W Int) (X Int) ) 
    (=>
      (and
        (main@.lr.ph89.preheader C D E F G H I J K N O P Q S A B T U V W X)
        (and (= M S) (= L true) (= R (or A B)))
      )
      (main@.lr.ph89 C D E F G H I J K L M N O P Q R S T U V W X)
    )
  )
)
(assert
  (forall ( (A Int) (B Int) (C Int) (D Int) (E Int) (F Int) (G Int) (H Int) (I Int) (J Int) (K Int) (L Int) (M Bool) (N Int) (O Int) (P Int) (Q Int) (R Int) (S Bool) (T Bool) (U Bool) (V Bool) ) 
    (=>
      (and
        (main@.preheader25.lr.ph.split.us A B C S D E F G H I J K L T M N O P Q R)
        (and (= V (or U T)) (= V true) (= U (not S)))
      )
      main@verifier.error
    )
  )
)
(assert
  (forall ( (A Bool) (B Bool) (C Bool) (D Int) (E Int) (F Int) (G Int) (H Bool) (I Int) (J Int) (K Int) (L Int) (M Int) (N Int) (O Int) (P Int) (Q Bool) (R Int) (S Int) (T Int) (U Int) (V Int) (W Int) ) 
    (=>
      (and
        (main@.preheader25.lr.ph.split.us E F G H I J K L M N O P D A Q R T U V W)
        (and (= C (or B A)) (= S D) (not C) (= B (not H)))
      )
      (main@._crit_edge43.us E F G H I J K L M N O P Q R S T U V W)
    )
  )
)
(assert
  (forall ( (A Bool) (B Int) (C Int) (D Int) (E Bool) (F Int) (G Int) (H Int) (I Int) (J Int) (K Int) (L Int) (M Int) (N Bool) (O Int) (P Int) (Q Int) (R Int) (S Int) (T Int) ) 
    (=>
      (and
        (main@._crit_edge43.us B C D E F G H I J K L M N O P Q R S T)
        (and (= A true) (= A (not (<= D P))))
      )
      (main@.lr.ph42.us B C D E F G H I J K L M N O P Q R S T)
    )
  )
)
(assert
  (forall ( (A Bool) (B Int) (C Bool) (D Int) (E Int) (F Int) (G Bool) (H Int) (I Int) (J Int) (K Int) (L Int) (M Int) (N Int) (O Int) (P Int) (Q Int) (R Int) (S Int) (T Int) ) 
    (=>
      (and
        (main@._crit_edge43.us D E F G H I J K L M N O A P B Q R S T)
        (and (not C) (= C (not (<= F B))))
      )
      (main@.preheader29 D E F G H I J K L M N O P Q R S T)
    )
  )
)
(assert
  (forall ( (A Int) (B Int) (C Int) (D Bool) (E Int) (F Int) (G Int) (H Int) (I Int) (J Int) (K Int) (L Int) (M Int) (N Int) (O Int) (P Int) (Q Int) (R Int) (S Int) (T Bool) (U Bool) (V Bool) ) 
    (=>
      (and
        (main@.lr.ph42.us A B C D E F G H I J K L U M R S N O P)
        (and (= V (or U T)) (= Q (+ 1 R)) (= V true) (= T (not (<= S R))))
      )
      main@verifier.error
    )
  )
)
(assert
  (forall ( (A Int) (B Bool) (C Bool) (D Int) (E Int) (F Int) (G Int) (H Bool) (I Int) (J Int) (K Int) (L Int) (M Int) (N Int) (O Int) (P Int) (Q Bool) (R Int) (S Int) (T Int) (U Int) (V Int) (W Int) ) 
    (=>
      (and
        (main@.lr.ph42.us E F G H I J K L M N O P Q R A T U V W)
        (and (= C (or B Q)) (= D (+ 1 A)) (= S D) (not C) (= B (not (<= T A))))
      )
      (main@._crit_edge43.us E F G H I J K L M N O P Q R S T U V W)
    )
  )
)
(assert
  (forall ( (A Bool) (B Bool) (C Int) (D Int) (E Int) (F Int) (G Int) (H Int) (I Int) (J Int) (K Int) (L Int) (M Int) (N Int) (O Int) (P Int) (Q Int) (R Int) ) 
    (=>
      (and
        (main@.preheader27 C D E A F G H I J K L M N O P Q R)
        (and (= B true) (= B (not (<= D G))))
      )
      (main@.loopexit C D E F G H I J K L M N O P Q R)
    )
  )
)
(assert
  (forall ( (A Bool) (B Int) (C Int) (D Int) (E Bool) (F Int) (G Int) (H Int) (I Int) (J Int) (K Int) (L Int) (M Int) (N Int) (O Int) (P Int) (Q Int) (R Int) ) 
    (=>
      (and
        (main@.preheader27 B C D E F G H I J K L M N O P Q R)
        (and (not A) (= A (not (<= C G))))
      )
      (main@.lr.ph49.split.preheader B C D E F G H I J K L M N O P Q R)
    )
  )
)
(assert
  (forall ( (A Bool) (B Bool) (C Int) (D Int) (E Int) (F Bool) (G Int) (H Int) (I Int) (J Int) (K Int) (L Int) (M Int) (N Int) (O Int) (P Int) (Q Int) (R Int) (S Int) (T Int) ) 
    (=>
      (and
        (main@.lr.ph49.split.preheader C D E F G H J K L M N O P Q R S T)
        (and (= A (not (<= D K))) (= I D) (= B true) (= B (and F A)))
      )
      (main@.lr.ph97 C D E F G H I J K L M N O P Q R S T)
    )
  )
)
(assert
  (forall ( (A Int) (B Int) (C Int) (D Int) (E Int) (F Int) (G Int) (H Int) (I Int) (J Int) (K Int) (L Int) (M Int) (N Int) (O Int) (P Int) (Q Bool) (R Bool) (S Bool) ) 
    (=>
      (and
        (main@.lr.ph49.split.preheader A O B Q C D E P F G H I J K L M N)
        (and (= S (and R Q)) (not S) (= R (not (<= O P))))
      )
      main@verifier.error
    )
  )
)
(assert
  (forall ( (A Bool) (B Bool) (C Int) (D Int) (E Int) (F Int) (G Int) (H Int) (I Int) (J Int) (K Int) (L Int) (M Int) (N Int) (O Int) (P Int) (Q Int) (R Int) ) 
    (=>
      (and
        (main@.preheader29 C D E A F G H I J K L M N O P Q R)
        (and (= B true) (= B (not (<= D G))))
      )
      (main@.loopexit C D E F G H I J K L M N O P Q R)
    )
  )
)
(assert
  (forall ( (A Bool) (B Int) (C Int) (D Int) (E Bool) (F Int) (G Int) (H Int) (I Int) (J Int) (K Int) (L Int) (M Int) (N Int) (O Int) (P Int) (Q Int) (R Int) ) 
    (=>
      (and
        (main@.preheader29 B C D E F G H I J K L M N O P Q R)
        (and (not A) (= A (not (<= C G))))
      )
      (main@.lr.ph47.split.preheader B C D E F G H I J K L M N O P Q R)
    )
  )
)
(assert
  (forall ( (A Bool) (B Bool) (C Int) (D Int) (E Int) (F Bool) (G Int) (H Int) (I Int) (J Int) (K Int) (L Int) (M Int) (N Int) (O Int) (P Int) (Q Int) (R Int) (S Int) (T Int) ) 
    (=>
      (and
        (main@.lr.ph47.split.preheader C D E F G H I J K L N O P Q R S T)
        (and (= A (not (<= D O))) (= M D) (= B true) (= B (and F A)))
      )
      (main@.lr.ph94 C D E F G H I J K L M N O P Q R S T)
    )
  )
)
(assert
  (forall ( (A Int) (B Int) (C Int) (D Int) (E Int) (F Int) (G Int) (H Int) (I Int) (J Int) (K Int) (L Int) (M Int) (N Int) (O Int) (P Int) (Q Bool) (R Bool) (S Bool) ) 
    (=>
      (and
        (main@.lr.ph47.split.preheader A O B Q C D E F G H I P J K L M N)
        (and (= S (and R Q)) (not S) (= R (not (<= O P))))
      )
      main@verifier.error
    )
  )
)
(assert
  (forall ( (A Int) (B Bool) (C Bool) (D Int) (E Int) (F Int) (G Int) (H Bool) (I Int) (J Int) (K Int) (L Int) (M Int) (N Bool) (O Int) (P Int) (Q Bool) (R Int) (S Int) (T Bool) (U Int) (V Int) (W Int) (X Int) (Y Int) (Z Int) ) 
    (=>
      (and
        (main@.lr.ph39.split.preheader E F G H I J K L M A P Q R S T U V W X Y Z)
        (and (= B (and C Q))
     (= C (not (<= A P)))
     (= D (+ 1 A))
     (= O D)
     (= B true)
     (= N C))
      )
      (main@.lr.ph89 E F G H I J K L M N O P Q R S T U V W X Y Z)
    )
  )
)
(assert
  (forall ( (A Int) (B Int) (C Int) (D Bool) (E Int) (F Int) (G Int) (H Int) (I Int) (J Int) (K Int) (L Bool) (M Int) (N Int) (O Int) (P Int) (Q Int) (R Int) (S Int) (T Int) (U Int) (V Bool) (W Bool) (X Bool) ) 
    (=>
      (and
        (main@.lr.ph39.split.preheader A B C D E F G H I T U W J K L M N O P Q R)
        (and (= X (and W V)) (= S (+ 1 T)) (not X) (= V (not (<= T U))))
      )
      main@verifier.error
    )
  )
)
(assert
  (forall ( (A Int) (B Int) (C Int) (D Bool) (E Int) (F Int) (G Int) (H Int) (I Int) (J Int) (K Bool) (L Int) (M Int) (N Bool) (O Int) (P Int) (Q Bool) (R Int) (S Int) (T Int) (U Int) (V Int) (W Int) ) 
    (=>
      (and
        (main@.lr.ph89 A B C D E F G H J K L M N O P Q R S T U V W)
        (= I R)
      )
      (main@_51 A B C D E F G H I J K L M N O P Q R S T U V W)
    )
  )
)
(assert
  (forall ( (A Bool) (B Int) (C Int) (D Int) (E Bool) (F Int) (G Int) (H Int) (I Int) (J Int) (K Int) (L Bool) (M Int) (N Int) (O Bool) (P Int) (Q Int) (R Bool) (S Int) (T Int) (U Int) (V Int) (W Int) (X Int) ) 
    (=>
      (and
        (main@_51 B C D E F G H I J K L M N O P Q R S T U V W X)
        (and (= A true) (= A (not (<= G J))))
      )
      (main@.lr.ph39.split B C D E F G H I J K L M N O P Q R S T U V W X)
    )
  )
)
(assert
  (forall ( (A Bool) (B Int) (C Bool) (D Int) (E Int) (F Int) (G Bool) (H Int) (I Int) (J Int) (K Int) (L Int) (M Int) (N Int) (O Bool) (P Int) (Q Int) (R Bool) (S Int) (T Int) (U Int) (V Int) (W Int) (X Int) ) 
    (=>
      (and
        (main@_51 D E F G H I J K B L A M N O P Q R S T U V W X)
        (and (not C) (= C (not (<= I B))))
      )
      (main@._crit_edge40 D E F G H I J K L M N O P Q R S T U V W X)
    )
  )
)
(assert
  (forall ( (A Int) (B Bool) (C Bool) (D Bool) (E Int) (F Int) (G Int) (H Int) (I Bool) (J Int) (K Int) (L Int) (M Int) (N Int) (O Int) (P Bool) (Q Int) (R Int) (S Bool) (T Int) (U Int) (V Bool) (W Int) (X Int) (Y Int) (Z Int) (A1 Int) (B1 Int) ) 
    (=>
      (and
        (main@.lr.ph39.split F G H I J K L M A O P Q R S T U V W X Y Z A1 B1)
        (and (= C (and I B))
     (= D (and C P))
     (= E (+ 1 A))
     (= N E)
     (= D true)
     (= B (not (<= A O))))
      )
      (main@_51 F G H I J K L M N O P Q R S T U V W X Y Z A1 B1)
    )
  )
)
(assert
  (forall ( (A Int) (B Int) (C Int) (D Int) (E Int) (F Int) (G Int) (H Int) (I Int) (J Bool) (K Int) (L Int) (M Bool) (N Int) (O Int) (P Int) (Q Int) (R Int) (S Int) (T Int) (U Int) (V Int) (W Bool) (X Bool) (Y Bool) (Z Bool) (A1 Bool) ) 
    (=>
      (and
        (main@.lr.ph39.split A B C W D E F G U V Y H I J K L M N O P Q R S)
        (and (= A1 (and Z Y))
     (= X (not (<= U V)))
     (= T (+ 1 U))
     (not A1)
     (= Z (and X W)))
      )
      main@verifier.error
    )
  )
)
(assert
  (forall ( (A Int) (B Int) (C Int) (D Bool) (E Int) (F Int) (G Int) (H Int) (I Int) (J Int) (K Int) (L Bool) (M Int) (N Int) (O Int) (P Int) (Q Int) (R Int) (S Int) (T Int) (U Bool) ) 
    (=>
      (and
        (main@._crit_edge40 A B C D E F G H I J K L M N U O P Q R S T)
        (= U true)
      )
      main@verifier.error
    )
  )
)
(assert
  (forall ( (A Int) (B Int) (C Int) (D Bool) (E Int) (F Int) (G Int) (H Int) (I Int) (J Int) (K Int) (L Bool) (M Int) (N Int) (O Bool) (P Int) (Q Int) (R Int) (S Int) (T Int) (U Int) ) 
    (=>
      (and
        (main@._crit_edge40 A B C D E F G H I J K L M N O P Q R S T U)
        (not O)
      )
      (main@.lr.ph42.split.preheader A B C D E F G H I J K L M N O P Q R S T U)
    )
  )
)
(assert
  (forall ( (A Bool) (B Int) (C Int) (D Int) (E Bool) (F Int) (G Int) (H Int) (I Int) (J Int) (K Int) (L Int) (M Bool) (N Int) (O Int) (P Bool) (Q Int) (R Int) (S Int) (T Int) (U Int) (V Int) ) 
    (=>
      (and
        (main@.lr.ph42.split.preheader B C D E F G H I J K L M N O P Q R S T U V)
        (and (= A true) (= A (not (<= D K))))
      )
      (main@.lr.ph39.split.preheader B C D E F G H I J K L M N O P Q R S T U V)
    )
  )
)
(assert
  (forall ( (A Bool) (B Bool) (C Int) (D Int) (E Bool) (F Int) (G Int) (H Int) (I Bool) (J Int) (K Int) (L Int) (M Int) (N Int) (O Int) (P Int) (Q Int) (R Int) (S Int) (T Int) (U Int) (V Int) ) 
    (=>
      (and
        (main@.lr.ph42.split.preheader F G H I J K L M N D O A P Q B C R S T U V)
        (and (not E) (= E (not (<= H D))))
      )
      (main@.preheader29 F G H I J K L M N O P Q R S T U V)
    )
  )
)
(assert
  (forall ( (A Bool) (B Int) (C Int) (D Int) (E Bool) (F Int) (G Int) (H Int) (I Int) (J Int) (K Int) (L Int) (M Int) (N Int) (O Int) (P Int) (Q Int) (R Int) (S Int) ) 
    (=>
      (and
        (main@.lr.ph94 B C D E F G H I J K L M N O P Q R S)
        (and (= A true) (= A (not (<= G L))))
      )
      (main@.lr.ph47.split B C D E F G H I J K L M N O P Q R S)
    )
  )
)
(assert
  (forall ( (A Bool) (B Int) (C Bool) (D Int) (E Int) (F Int) (G Int) (H Int) (I Int) (J Int) (K Int) (L Int) (M Int) (N Int) (O Int) (P Int) (Q Int) (R Int) (S Int) ) 
    (=>
      (and
        (main@.lr.ph94 D E F A G H I J K L B M N O P Q R S)
        (and (not C) (= C (not (<= H B))))
      )
      (main@.loopexit D E F G H I J K L M N O P Q R S)
    )
  )
)
(assert
  (forall ( (A Int) (B Bool) (C Bool) (D Int) (E Int) (F Int) (G Int) (H Bool) (I Int) (J Int) (K Int) (L Int) (M Int) (N Int) (O Int) (P Int) (Q Int) (R Int) (S Int) (T Int) (U Int) (V Int) ) 
    (=>
      (and
        (main@.lr.ph47.split E F G H I J K L M N A P Q R S T U V)
        (and (= C (and H B)) (= O D) (= D (+ 1 A)) (= C true) (= B (not (<= A P))))
      )
      (main@.lr.ph94 E F G H I J K L M N O P Q R S T U V)
    )
  )
)
(assert
  (forall ( (A Int) (B Int) (C Int) (D Int) (E Int) (F Int) (G Int) (H Int) (I Int) (J Int) (K Int) (L Int) (M Int) (N Int) (O Int) (P Int) (Q Int) (R Int) (S Bool) (T Bool) (U Bool) ) 
    (=>
      (and
        (main@.lr.ph47.split A B C S D E F G H I Q R J K L M N O)
        (and (= U (and T S)) (= P (+ 1 Q)) (not U) (= T (not (<= Q R))))
      )
      main@verifier.error
    )
  )
)
(assert
  (forall ( (A Bool) (B Int) (C Int) (D Int) (E Bool) (F Int) (G Int) (H Int) (I Int) (J Int) (K Int) (L Int) (M Int) (N Int) (O Int) (P Int) (Q Int) (R Int) (S Int) ) 
    (=>
      (and
        (main@.lr.ph97 B C D E F G H I J K L M N O P Q R S)
        (and (= A true) (= A (not (<= G H))))
      )
      (main@.lr.ph49.split B C D E F G H I J K L M N O P Q R S)
    )
  )
)
(assert
  (forall ( (A Bool) (B Int) (C Bool) (D Int) (E Int) (F Int) (G Int) (H Int) (I Int) (J Int) (K Int) (L Int) (M Int) (N Int) (O Int) (P Int) (Q Int) (R Int) (S Int) ) 
    (=>
      (and
        (main@.lr.ph97 D E F A G H B I J K L M N O P Q R S)
        (and (not C) (= C (not (<= H B))))
      )
      (main@.loopexit D E F G H I J K L M N O P Q R S)
    )
  )
)
(assert
  (forall ( (A Int) (B Bool) (C Bool) (D Int) (E Int) (F Int) (G Int) (H Bool) (I Int) (J Int) (K Int) (L Int) (M Int) (N Int) (O Int) (P Int) (Q Int) (R Int) (S Int) (T Int) (U Int) (V Int) ) 
    (=>
      (and
        (main@.lr.ph49.split E F G H I J A L M N O P Q R S T U V)
        (and (= C (and H B)) (= K D) (= D (+ 1 A)) (= C true) (= B (not (<= A L))))
      )
      (main@.lr.ph97 E F G H I J K L M N O P Q R S T U V)
    )
  )
)
(assert
  (forall ( (A Int) (B Int) (C Int) (D Int) (E Int) (F Int) (G Int) (H Int) (I Int) (J Int) (K Int) (L Int) (M Int) (N Int) (O Int) (P Int) (Q Int) (R Int) (S Bool) (T Bool) (U Bool) ) 
    (=>
      (and
        (main@.lr.ph49.split A B C S D E Q R F G H I J K L M N O)
        (and (= U (and T S)) (= P (+ 1 Q)) (not U) (= T (not (<= Q R))))
      )
      main@verifier.error
    )
  )
)
(assert
  (forall ( (A Int) (B Int) (C Int) (D Int) (E Int) (F Int) (G Int) (H Int) (I Int) (J Int) (K Int) (L Int) (M Int) (N Int) (O Int) (P Bool) (Q Bool) (R Int) (S Int) (T Bool) ) 
    (=>
      (and
        (main@.loopexit A S B N O C D E F G H I J K L M)
        (and (= T (or Q P))
     (= Q (not (<= S O)))
     (= R (+ (- 1) S))
     (= T true)
     (= P (not (<= N S))))
      )
      main@verifier.error
    )
  )
)
(assert
  (forall ( (A Bool) (B Bool) (C Bool) (D Int) (E Int) (F Int) (G Int) (H Int) (I Int) (J Int) (K Int) (L Int) (M Int) (N Int) (O Int) (P Int) (Q Int) (R Int) (S Int) (T Int) ) 
    (=>
      (and
        (main@.loopexit D E G H I J K L M N O P Q R S T)
        (and (= C (or A B))
     (= A (not (<= H E)))
     (= F (+ (- 1) E))
     (not C)
     (= B (not (<= E I))))
      )
      (main@_22 D E F G H I J K L M N O P Q R S T)
    )
  )
)
(assert
  (forall ( (CHC_COMP_UNUSED Bool) ) 
    (=>
      (and
        main@verifier.error
        true
      )
      main@verifier.error.split
    )
  )
)
(assert
  (forall ( (A Bool) (B Int) (C Int) (D Int) (E Int) (F Int) (G Int) (H Int) (I Int) (J Int) (K Int) (L Int) (M Int) (N Int) (O Int) (P Int) (Q Int) (R Bool) ) 
    (=>
      (and
        (main@empty.loop B C D E F G H I J K L M N O P Q R)
        (= A true)
      )
      (main@empty.loop.body B C D E F G H I J K L M N O P Q R)
    )
  )
)
(assert
  (forall ( (A Bool) (B Int) (C Bool) (D Int) (E Int) (F Int) (G Bool) (H Int) (I Int) (J Int) (K Int) (L Int) (M Int) (N Int) (O Int) (P Int) (Q Int) (R Int) (S Int) (T Int) ) 
    (=>
      (and
        (main@empty.loop D F H I J K L M N O P Q R S T B C)
        (and (= E B) (not A) (= G C))
      )
      (main@.preheader34 D E F G H I J K L M N O P Q R S T)
    )
  )
)
(assert
  (forall ( (A Int) (B Int) (C Int) (D Int) (E Int) (F Int) (G Int) (H Int) (I Int) (J Int) (K Int) (L Int) (M Int) (N Int) (O Int) (P Int) (Q Bool) ) 
    (=>
      (and
        (main@empty.loop.body A B C D E F G H I J K L M N O P Q)
        true
      )
      (main@empty.loop A B C D E F G H I J K L M N O P Q)
    )
  )
)
(assert
  (forall ( (CHC_COMP_UNUSED Bool) ) 
    (=>
      (and
        main@verifier.error.split
        true
      )
      false
    )
  )
)

(check-sat)
(exit)
